16034
1 0 1 1 0 1 0 0 1 0 0 1 0 1 1 0 0 1 0 0 1 0 0 0 1 1 0 0 0 0 
20 25 13 2 13 5 11 11 14 0 24 2 20 20 3 14 14 0 25 17 14 0 5 2 5 20 2 24 5 17 11 25 13 25 14 13 24 11 0 2 0 20 24 2 24 0 17 13 25 14 11 14 11 5 13 20 17 11 0 14 0 5 20 25 0 25 11 17 5 24 13 13 5 14 24 20 5 20 14 24 8 17 13 17 11 17 2 17 20 11 2 24 11 11 0 5 2 14 25 13 20 17 0 25 2 25 2 11 14 2 0 14 17 0 25 14 24 24 24 24 5 20 25 13 13 0 5 5 17 25 17 25 24 5 20 14 0 25 13 17 0 2 20 2 20 2 25 11 11 5 
